33D32945 STP File, STP Format Version 1.0

SECTION Comment
Name    "i080-045"
Creator "Cees Duin"
Remark  "Incidence graph"
END

SECTION Graph
Nodes 80
Edges 632
E 1 2 300
E 1 11 197
E 1 15 191
E 1 16 195
E 1 25 200
E 1 28 204
E 1 30 196
E 1 36 201
E 1 38 199
E 1 41 199
E 1 45 200
E 1 46 198
E 1 55 194
E 1 56 193
E 1 59 207
E 1 67 192
E 1 70 196
E 2 4 298
E 2 13 196
E 2 23 213
E 2 42 201
E 2 59 199
E 2 67 190
E 2 70 200
E 2 71 204
E 2 73 194
E 2 77 198
E 2 80 197
E 3 15 202
E 3 27 194
E 3 28 198
E 3 29 195
E 3 31 194
E 3 40 200
E 3 46 203
E 3 48 206
E 3 49 201
E 3 56 203
E 3 58 209
E 3 64 203
E 3 76 205
E 3 79 193
E 4 12 194
E 4 14 197
E 4 15 210
E 4 22 207
E 4 33 196
E 4 42 189
E 4 45 198
E 4 47 200
E 4 48 201
E 4 51 205
E 4 53 204
E 4 58 205
E 4 59 201
E 4 60 194
E 4 62 195
E 4 65 200
E 4 68 204
E 4 71 200
E 5 12 198
E 5 13 196
E 5 19 203
E 5 29 200
E 5 31 195
E 5 33 203
E 5 39 203
E 5 45 197
E 5 46 189
E 5 52 192
E 5 54 205
E 5 59 199
E 5 67 192
E 5 72 192
E 5 77 204
E 6 7 189
E 6 9 204
E 6 11 195
E 6 16 201
E 6 26 208
E 6 28 207
E 6 32 203
E 6 33 197
E 6 34 200
E 6 35 207
E 6 38 200
E 6 48 199
E 6 55 198
E 6 56 189
E 6 57 197
E 6 64 201
E 6 65 195
E 6 68 203
E 6 72 209
E 6 76 204
E 6 79 198
E 7 8 100
E 7 19 104
E 7 27 95
E 7 31 100
E 7 37 98
E 7 41 95
E 7 45 102
E 7 59 95
E 7 65 113
E 7 73 103
E 8 9 105
E 8 13 107
E 8 21 96
E 8 22 90
E 8 28 102
E 8 44 96
E 8 45 104
E 8 46 106
E 8 47 86
E 8 51 89
E 8 54 104
E 8 61 105
E 8 64 102
E 8 75 98
E 8 80 99
E 9 12 102
E 9 14 106
E 9 17 108
E 9 38 103
E 9 39 95
E 9 40 94
E 9 43 101
E 9 47 95
E 9 51 97
E 9 58 96
E 9 60 102
E 9 63 108
E 9 64 102
E 10 13 98
E 10 17 111
E 10 18 106
E 10 19 101
E 10 20 101
E 10 31 105
E 10 33 99
E 10 40 102
E 10 41 102
E 10 50 100
E 10 51 101
E 10 57 95
E 10 76 102
E 10 78 100
E 11 15 100
E 11 22 102
E 11 36 97
E 11 38 96
E 11 46 94
E 11 47 105
E 11 51 103
E 11 54 95
E 11 55 98
E 11 57 91
E 11 58 98
E 11 59 112
E 11 64 93
E 11 67 94
E 11 72 98
E 11 74 101
E 11 76 111
E 11 78 102
E 12 14 100
E 12 15 102
E 12 26 98
E 12 45 98
E 12 48 98
E 12 51 108
E 12 53 102
E 12 59 94
E 12 63 102
E 13 29 100
E 13 30 94
E 13 32 105
E 13 40 108
E 13 47 100
E 13 48 90
E 13 53 99
E 13 56 94
E 13 58 99
E 13 65 99
E 13 73 92
E 13 74 102
E 13 76 90
E 14 17 102
E 14 19 96
E 14 22 97
E 14 24 92
E 14 30 98
E 14 34 96
E 14 37 100
E 14 43 103
E 14 44 105
E 14 49 95
E 14 52 104
E 14 56 107
E 14 68 109
E 14 79 107
E 15 17 105
E 15 19 101
E 15 22 106
E 15 23 103
E 15 27 101
E 15 40 106
E 15 49 98
E 15 51 95
E 15 55 94
E 15 56 107
E 15 59 100
E 15 61 104
E 15 62 103
E 15 69 100
E 15 71 100
E 15 72 102
E 15 76 91
E 15 77 97
E 16 20 99
E 16 22 103
E 16 27 99
E 16 32 100
E 16 34 105
E 16 45 103
E 16 46 106
E 16 48 100
E 16 51 99
E 16 63 100
E 16 67 94
E 16 68 96
E 16 77 91
E 16 78 109
E 17 30 100
E 17 32 102
E 17 34 106
E 17 35 95
E 17 43 92
E 17 49 99
E 17 67 95
E 17 71 96
E 17 73 102
E 17 76 96
E 17 77 101
E 18 21 100
E 18 22 101
E 18 30 97
E 18 38 95
E 18 39 101
E 18 40 104
E 18 47 98
E 18 51 101
E 18 52 96
E 18 57 99
E 18 65 98
E 18 74 97
E 18 77 95
E 19 20 96
E 19 22 93
E 19 24 98
E 19 28 97
E 19 32 98
E 19 41 98
E 19 49 105
E 19 64 107
E 19 67 104
E 19 73 107
E 20 30 105
E 20 31 101
E 20 32 100
E 20 40 94
E 20 46 100
E 20 50 95
E 20 58 106
E 20 65 98
E 20 74 106
E 20 76 99
E 20 77 96
E 20 78 95
E 21 34 88
E 21 44 102
E 21 49 106
E 21 51 99
E 21 68 101
E 21 72 111
E 21 73 102
E 21 74 106
E 22 32 107
E 22 34 105
E 22 35 101
E 22 37 96
E 22 45 98
E 22 50 97
E 22 51 104
E 22 53 94
E 22 60 109
E 22 68 108
E 22 72 98
E 22 79 103
E 23 24 99
E 23 31 106
E 23 41 98
E 23 43 96
E 23 54 94
E 23 55 92
E 23 62 98
E 23 67 99
E 24 25 98
E 24 28 100
E 24 30 101
E 24 32 102
E 24 39 95
E 24 48 97
E 24 50 101
E 24 62 103
E 24 69 96
E 24 73 91
E 25 35 101
E 25 37 94
E 25 39 103
E 25 40 94
E 25 42 93
E 25 53 99
E 25 54 111
E 25 55 102
E 25 60 96
E 25 64 106
E 25 65 106
E 25 68 107
E 26 30 97
E 26 32 95
E 26 37 102
E 26 39 104
E 26 42 92
E 26 43 90
E 26 54 109
E 26 55 95
E 26 59 93
E 26 60 99
E 26 70 105
E 26 76 109
E 27 29 101
E 27 30 103
E 27 37 98
E 27 42 98
E 27 45 97
E 27 47 100
E 27 65 101
E 27 67 106
E 27 68 92
E 27 70 101
E 27 71 89
E 27 80 98
E 28 31 99
E 28 36 95
E 28 37 104
E 28 39 110
E 28 42 91
E 28 43 102
E 28 56 90
E 28 60 102
E 28 63 97
E 28 64 95
E 28 68 94
E 28 69 94
E 28 73 100
E 28 78 96
E 29 32 102
E 29 36 94
E 29 37 95
E 29 67 104
E 29 71 101
E 29 73 99
E 29 75 99
E 29 77 99
E 30 31 102
E 30 32 93
E 30 34 96
E 30 36 96
E 30 45 94
E 30 46 102
E 30 58 96
E 30 59 102
E 30 64 99
E 30 72 86
E 31 52 109
E 31 56 104
E 31 70 104
E 31 74 93
E 31 76 90
E 32 37 107
E 32 39 97
E 32 42 97
E 32 44 95
E 32 45 99
E 32 51 99
E 32 52 102
E 32 56 98
E 32 57 97
E 32 59 102
E 32 65 95
E 32 66 90
E 32 67 95
E 32 77 102
E 33 36 109
E 33 47 106
E 33 48 100
E 33 51 106
E 33 56 95
E 33 60 95
E 33 65 93
E 33 73 100
E 33 76 94
E 33 77 95
E 34 38 97
E 34 44 109
E 34 49 99
E 34 50 107
E 34 53 98
E 34 55 105
E 34 56 96
E 34 57 96
E 34 58 104
E 34 62 92
E 34 75 93
E 34 78 97
E 35 42 102
E 35 44 90
E 35 47 92
E 35 53 105
E 35 55 102
E 35 57 94
E 35 58 106
E 35 59 104
E 35 63 96
E 35 76 93
E 35 78 97
E 36 41 98
E 36 42 101
E 36 43 89
E 36 44 103
E 36 51 102
E 36 59 100
E 36 75 99
E 36 78 105
E 36 80 98
E 37 39 101
E 37 40 102
E 37 43 101
E 37 50 103
E 37 52 90
E 37 54 104
E 37 59 102
E 37 70 92
E 37 76 104
E 38 41 95
E 38 43 104
E 38 51 98
E 38 54 93
E 38 56 105
E 38 58 105
E 38 64 98
E 38 71 95
E 38 73 98
E 38 74 97
E 38 76 93
E 38 77 102
E 39 40 102
E 39 52 94
E 39 54 102
E 39 62 100
E 39 70 99
E 39 76 105
E 40 53 99
E 40 71 101
E 40 74 104
E 41 49 104
E 41 56 96
E 41 62 103
E 41 64 101
E 41 69 101
E 41 73 89
E 41 78 102
E 41 79 101
E 42 50 101
E 42 58 109
E 42 59 94
E 42 60 93
E 42 61 99
E 42 70 89
E 42 73 95
E 42 80 91
E 43 52 105
E 43 54 96
E 43 55 102
E 43 58 98
E 43 65 92
E 43 70 102
E 43 71 106
E 43 74 105
E 43 77 102
E 44 46 97
E 44 50 98
E 44 51 101
E 44 52 92
E 44 53 96
E 44 56 103
E 44 66 103
E 44 67 99
E 44 78 102
E 44 80 104
E 45 48 99
E 45 56 101
E 45 59 99
E 45 61 105
E 45 62 94
E 45 80 107
E 46 57 104
E 46 59 104
E 46 66 98
E 47 57 99
E 47 60 105
E 47 75 110
E 47 79 104
E 48 57 101
E 48 62 99
E 48 63 97
E 48 64 99
E 48 66 102
E 48 69 93
E 49 53 102
E 49 60 100
E 49 74 99
E 50 56 107
E 50 61 95
E 50 67 106
E 51 62 101
E 51 74 104
E 52 55 93
E 52 64 102
E 52 67 99
E 52 68 93
E 52 71 105
E 52 72 105
E 52 73 99
E 52 75 103
E 52 76 96
E 52 78 93
E 53 55 95
E 53 61 97
E 53 64 103
E 53 65 102
E 53 66 99
E 53 71 100
E 53 73 103
E 54 56 104
E 54 67 106
E 54 71 99
E 54 73 107
E 55 56 95
E 55 63 91
E 55 66 101
E 55 67 102
E 55 68 99
E 55 69 103
E 55 71 100
E 55 74 105
E 56 57 102
E 56 60 101
E 56 74 88
E 56 79 102
E 57 62 108
E 57 65 102
E 57 68 102
E 57 74 86
E 57 77 104
E 58 62 94
E 58 66 103
E 58 68 96
E 58 71 97
E 58 80 97
E 59 60 107
E 59 64 100
E 59 69 95
E 59 70 93
E 59 76 96
E 60 72 99
E 60 74 95
E 60 75 96
E 60 78 96
E 60 80 104
E 61 64 96
E 61 65 96
E 61 72 107
E 61 78 93
E 61 79 98
E 63 66 101
E 63 67 100
E 63 71 100
E 63 76 97
E 63 80 98
E 64 72 101
E 64 77 99
E 64 80 100
E 65 70 106
E 65 78 101
E 66 75 102
E 66 79 107
E 67 70 103
E 67 71 97
E 67 72 104
E 67 74 98
E 67 75 100
E 67 80 95
E 68 69 98
E 68 79 99
E 68 80 97
E 69 74 103
E 69 77 98
E 70 73 100
E 70 76 96
E 70 80 96
E 71 72 108
E 71 73 95
E 71 74 92
E 72 73 93
E 72 76 111
E 72 78 91
E 75 80 97
E 76 79 92
E 78 80 103
END

SECTION Terminals
Terminals 6
T 1
T 2
T 3
T 4
T 5
T 6
END

EOF
